\ Model (null)_copy
\ LP format - for model browsing. Use MPS format to capture full model detail.
Minimize
 
Subject To
 assignment_constraint_5_1: A_5_1_3 = 1
 assignment_constraint_5_2: A_5_2_4 = 1
 operation_constraint_5: A_5_1_3 + A_5_2_4 = 1
Bounds
Binaries
 A_5_1_3 A_5_2_4
End
